DIMACS2
40 121 191 134 90 224 42 268 276 199 175 238 314 113 79 152 54 140 149 219 247 183 165 86 11 4 242 70 98 309 30 27 154 211 257 184 158 88 214 174 14
p edge 320 1201
e 0 310 1.0
e 1 310 1.0
e 2 280 1.0
e 3 60 1.0
e 4 233 24.0
e 4 309 42.0
e 4 113 44.0
e 4 158 15.0
e 4 205 47.0
e 4 141 12.0
e 4 224 42.0
e 4 185 14.0
e 4 286 7.0
e 4 61 29.0
e 4 109 31.0
e 4 20 3.0
e 4 211 22.0
e 4 118 27.0
e 4 215 9.0
e 4 42 18.0
e 4 41 49.0
e 4 86 18.0
e 4 151 28.0
e 4 220 43.0
e 4 70 28.0
e 4 10 33.0
e 4 25 4.0
e 4 294 30.0
e 4 268 23.0
e 5 70 25.0
e 6 18 1.0
e 7 30 28.0
e 8 81 1.0
e 9 264 1.0
e 10 267 1.0
e 11 118 7.0
e 11 167 44.0
e 11 34 9.0
e 11 149 24.0
e 11 50 4.0
e 11 112 34.0
e 11 49 23.0
e 11 39 44.0
e 11 127 26.0
e 11 253 25.0
e 11 244 19.0
e 11 198 43.0
e 11 282 26.0
e 11 276 34.0
e 11 113 33.0
e 11 72 26.0
e 11 189 10.0
e 11 38 15.0
e 11 136 34.0
e 11 20 9.0
e 11 203 29.0
e 11 73 26.0
e 11 250 25.0
e 11 207 28.0
e 12 216 1.0
e 12 251 1.0
e 13 42 12.0
e 14 163 46.0
e 14 162 44.0
e 14 264 24.0
e 14 198 40.0
e 14 124 18.0
e 14 26 4.0
e 14 24 24.0
e 14 22 25.0
e 14 309 49.0
e 14 49 38.0
e 14 115 39.0
e 14 52 45.0
e 14 134 10.0
e 14 98 17.0
e 14 202 45.0
e 14 244 1.0
e 14 207 36.0
e 14 246 41.0
e 14 164 18.0
e 14 105 3.0
e 14 174 42.0
e 14 99 10.0
e 14 259 35.0
e 14 109 8.0
e 15 56 1.0
e 16 235 1.0
e 17 93 4.0
e 18 128 1.0
e 19 2 1.0
e 20 192 1.0
e 21 174 36.0
e 22 53 1.0
e 23 130 1.0
e 24 70 39.0
e 25 210 1.0
e 26 70 34.0
e 27 224 44.0
e 27 114 7.0
e 27 266 22.0
e 27 306 11.0
e 27 50 26.0
e 27 142 26.0
e 27 220 7.0
e 27 259 40.0
e 27 111 49.0
e 27 91 30.0
e 27 53 7.0
e 27 66 23.0
e 27 55 3.0
e 27 115 48.0
e 27 276 15.0
e 27 265 1.0
e 27 117 41.0
e 27 135 3.0
e 27 141 44.0
e 27 69 42.0
e 27 307 10.0
e 27 184 15.0
e 28 157 1.0
e 29 123 1.0
e 29 317 2.0
e 30 117 37.0
e 30 251 20.0
e 30 285 34.0
e 30 118 2.0
e 30 15 27.0
e 30 101 18.0
e 30 267 30.0
e 30 72 26.0
e 30 132 47.0
e 30 314 29.0
e 30 260 11.0
e 30 185 14.0
e 30 311 38.0
e 30 27 19.0
e 30 20 17.0
e 30 50 38.0
e 30 246 28.0
e 30 150 40.0
e 30 274 16.0
e 30 221 41.0
e 30 63 30.0
e 30 270 43.0
e 31 222 1.0
e 32 135 1.0
e 33 238 37.0
e 33 309 40.0
e 33 34 5.0
e 33 226 1.0
e 34 25 1.0
e 35 163 2.0
e 36 87 2.0
e 37 82 1.0
e 38 73 1.0
e 39 106 1.0
e 40 74 2.0
e 41 241 1.0
e 42 188 9.0
e 42 278 14.0
e 42 69 3.0
e 42 72 11.0
e 42 49 25.0
e 42 183 17.0
e 42 110 13.0
e 42 58 21.0
e 42 258 8.0
e 42 138 27.0
e 42 305 33.0
e 42 29 21.0
e 42 157 8.0
e 42 217 49.0
e 42 262 11.0
e 42 67 7.0
e 42 259 9.0
e 42 43 37.0
e 42 127 7.0
e 42 120 12.0
e 43 247 32.0
e 43 98 15.0
e 43 217 4.0
e 44 287 5.0
e 44 104 4.0
e 44 139 1.0
e 45 286 1.0
e 46 146 1.0
e 47 144 2.0
e 48 309 30.0
e 48 306 2.0
e 49 58 5.0
e 50 228 3.0
e 51 291 1.0
e 51 199 14.0
e 52 308 1.0
e 53 226 1.0
e 54 296 13.0
e 54 24 28.0
e 54 245 42.0
e 54 77 14.0
e 54 293 11.0
e 54 263 26.0
e 54 188 7.0
e 54 264 27.0
e 54 11 40.0
e 54 175 30.0
e 54 137 36.0
e 54 227 5.0
e 54 159 47.0
e 54 151 10.0
e 54 225 21.0
e 54 87 46.0
e 54 198 31.0
e 54 115 36.0
e 54 131 20.0
e 54 236 12.0
e 54 190 31.0
e 54 287 9.0
e 54 204 42.0
e 54 310 36.0
e 54 265 36.0
e 55 251 2.0
e 56 307 1.0
e 57 148 2.0
e 57 0 1.0
e 58 131 1.0
e 59 306 2.0
e 59 11 1.0
e 60 299 1.0
e 61 165 27.0
e 62 271 1.0
e 62 148 3.0
e 62 307 1.0
e 63 236 2.0
e 64 314 45.0
e 65 171 1.0
e 65 68 2.0
e 66 106 1.0
e 67 39 1.0
e 68 200 2.0
e 69 7 1.0
e 70 30 41.0
e 70 214 9.0
e 70 101 21.0
e 70 246 36.0
e 70 279 2.0
e 70 118 7.0
e 70 300 8.0
e 70 9 15.0
e 70 167 31.0
e 70 267 40.0
e 70 146 10.0
e 70 8 41.0
e 70 127 33.0
e 70 155 25.0
e 70 50 6.0
e 70 193 16.0
e 70 269 31.0
e 70 148 25.0
e 70 82 8.0
e 70 185 32.0
e 71 297 1.0
e 72 206 1.0
e 73 145 1.0
e 74 279 1.0
e 75 189 1.0
e 76 50 2.0
e 77 64 3.0
e 78 53 1.0
e 78 27 44.0
e 79 46 42.0
e 79 197 17.0
e 79 282 30.0
e 79 63 1.0
e 79 70 33.0
e 79 75 28.0
e 79 283 40.0
e 79 215 7.0
e 79 204 4.0
e 79 56 2.0
e 79 31 17.0
e 79 307 3.0
e 79 68 27.0
e 79 157 25.0
e 79 96 8.0
e 79 73 37.0
e 79 133 25.0
e 79 100 46.0
e 79 85 24.0
e 79 309 4.0
e 79 182 13.0
e 79 171 6.0
e 79 296 5.0
e 79 88 7.0
e 80 257 46.0
e 80 163 2.0
e 80 77 1.0
e 80 214 4.0
e 81 318 1.0
e 82 13 1.0
e 83 30 39.0
e 84 42 1.0
e 84 313 1.0
e 85 171 2.0
e 86 284 42.0
e 86 59 34.0
e 86 118 27.0
e 86 180 6.0
e 86 302 48.0
e 86 55 34.0
e 86 113 27.0
e 86 138 20.0
e 86 277 19.0
e 86 22 44.0
e 86 268 17.0
e 86 114 3.0
e 86 183 23.0
e 86 111 23.0
e 86 163 48.0
e 86 8 47.0
e 86 263 40.0
e 86 264 43.0
e 86 184 14.0
e 86 112 49.0
e 86 224 30.0
e 86 41 36.0
e 86 189 28.0
e 87 231 1.0
e 88 224 1.0
e 88 28 37.0
e 88 35 27.0
e 88 220 41.0
e 88 176 22.0
e 88 82 49.0
e 88 66 30.0
e 88 225 21.0
e 88 117 31.0
e 88 85 8.0
e 88 69 16.0
e 88 223 9.0
e 88 316 47.0
e 88 115 31.0
e 88 78 45.0
e 88 208 39.0
e 88 312 11.0
e 88 122 1.0
e 88 29 22.0
e 88 48 46.0
e 88 100 14.0
e 88 264 10.0
e 88 16 11.0
e 88 277 27.0
e 89 214 24.0
e 89 28 1.0
e 90 21 44.0
e 90 177 13.0
e 90 26 8.0
e 90 238 17.0
e 90 312 6.0
e 90 257 22.0
e 90 223 36.0
e 90 299 27.0
e 90 230 35.0
e 90 75 42.0
e 90 0 27.0
e 90 129 19.0
e 90 143 19.0
e 90 130 34.0
e 90 179 19.0
e 90 137 29.0
e 90 82 37.0
e 90 191 31.0
e 90 317 40.0
e 90 300 17.0
e 90 18 29.0
e 90 235 30.0
e 90 167 28.0
e 90 108 12.0
e 90 61 37.0
e 91 60 1.0
e 92 102 2.0
e 92 118 5.0
e 93 121 39.0
e 93 32 2.0
e 93 95 3.0
e 94 68 1.0
e 95 265 1.0
e 96 248 1.0
e 97 36 1.0
e 98 277 18.0
e 98 309 6.0
e 98 52 27.0
e 98 256 40.0
e 98 231 48.0
e 98 146 25.0
e 98 269 44.0
e 98 61 1.0
e 98 22 40.0
e 98 167 25.0
e 98 297 10.0
e 98 199 7.0
e 98 233 18.0
e 98 310 2.0
e 98 229 14.0
e 98 178 49.0
e 98 126 49.0
e 98 232 19.0
e 98 200 25.0
e 98 86 43.0
e 99 27 11.0
e 100 86 1.0
e 101 127 1.0
e 102 268 49.0
e 103 13 2.0
e 104 126 1.0
e 105 150 2.0
e 105 113 24.0
e 105 221 1.0
e 106 242 34.0
e 107 57 1.0
e 108 186 1.0
e 109 164 1.0
e 110 35 1.0
e 111 168 1.0
e 112 204 1.0
e 113 104 49.0
e 113 156 3.0
e 113 18 20.0
e 113 295 49.0
e 113 208 47.0
e 113 72 36.0
e 113 129 11.0
e 113 278 13.0
e 113 276 22.0
e 113 167 28.0
e 113 176 16.0
e 113 140 1.0
e 113 121 11.0
e 113 301 17.0
e 113 227 5.0
e 113 288 6.0
e 113 181 13.0
e 113 15 4.0
e 113 134 2.0
e 114 32 2.0
e 115 69 1.0
e 116 163 1.0
e 117 123 2.0
e 118 241 1.0
e 119 144 2.0
e 119 96 1.0
e 120 191 11.0
e 120 112 1.0
e 120 225 1.0
e 121 62 32.0
e 121 172 1.0
e 121 294 26.0
e 121 263 20.0
e 121 296 9.0
e 121 266 22.0
e 121 189 46.0
e 121 179 17.0
e 121 78 41.0
e 121 242 16.0
e 121 130 34.0
e 121 190 16.0
e 121 151 49.0
e 121 29 49.0
e 121 168 48.0
e 121 191 1.0
e 121 267 45.0
e 121 125 40.0
e 121 114 40.0
e 121 127 40.0
e 121 275 6.0
e 121 253 4.0
e 122 49 4.0
e 123 283 1.0
e 124 242 40.0
e 125 75 1.0
e 126 263 1.0
e 127 315 1.0
e 128 122 1.0
e 129 110 2.0
e 130 165 37.0
e 131 116 3.0
e 132 60 1.0
e 133 172 2.0
e 134 24 3.0
e 134 228 7.0
e 134 311 39.0
e 134 45 10.0
e 134 276 29.0
e 134 85 43.0
e 134 5 22.0
e 134 17 22.0
e 134 130 22.0
e 134 200 25.0
e 134 264 25.0
e 134 272 37.0
e 134 297 30.0
e 134 62 6.0
e 134 166 35.0
e 134 302 32.0
e 134 153 27.0
e 134 132 49.0
e 134 265 32.0
e 134 211 6.0
e 134 67 37.0
e 134 212 42.0
e 134 155 46.0
e 135 261 3.0
e 136 49 5.0
e 137 73 2.0
e 138 247 17.0
e 138 276 3.0
e 138 111 4.0
e 138 19 2.0
e 138 133 3.0
e 139 311 1.0
e 140 292 39.0
e 140 272 49.0
e 140 131 39.0
e 140 274 40.0
e 140 241 2.0
e 140 93 25.0
e 140 252 45.0
e 140 178 7.0
e 140 233 25.0
e 140 1 26.0
e 140 30 35.0
e 140 99 43.0
e 140 219 25.0
e 140 312 27.0
e 140 4 35.0
e 140 296 19.0
e 140 56 21.0
e 140 177 42.0
e 140 0 2.0
e 140 73 21.0
e 140 74 21.0
e 140 137 30.0
e 140 26 24.0
e 141 164 1.0
e 142 72 2.0
e 143 175 17.0
e 144 130 3.0
e 145 258 1.0
e 146 26 1.0
e 147 223 1.0
e 148 159 1.0
e 149 103 44.0
e 149 57 48.0
e 149 61 38.0
e 149 198 8.0
e 149 31 4.0
e 149 150 27.0
e 149 170 35.0
e 149 164 4.0
e 149 314 15.0
e 149 65 37.0
e 149 98 48.0
e 149 178 35.0
e 149 172 30.0
e 149 318 14.0
e 149 223 21.0
e 149 153 46.0
e 149 279 31.0
e 149 87 28.0
e 149 181 22.0
e 149 2 26.0
e 149 219 27.0
e 149 53 10.0
e 149 43 9.0
e 149 4 5.0
e 150 214 3.0
e 151 195 1.0
e 152 236 36.0
e 152 190 45.0
e 152 251 20.0
e 152 27 13.0
e 152 97 15.0
e 152 246 7.0
e 152 207 22.0
e 152 309 43.0
e 152 70 14.0
e 152 280 6.0
e 152 90 42.0
e 152 214 6.0
e 152 204 19.0
e 152 209 30.0
e 152 245 43.0
e 152 201 30.0
e 152 249 4.0
e 152 168 25.0
e 152 266 31.0
e 152 212 46.0
e 152 225 42.0
e 152 117 15.0
e 152 146 41.0
e 152 224 42.0
e 153 27 46.0
e 154 296 41.0
e 154 12 23.0
e 154 116 20.0
e 154 80 45.0
e 154 70 5.0
e 154 15 12.0
e 154 314 35.0
e 154 207 18.0
e 154 101 33.0
e 154 212 3.0
e 154 160 5.0
e 154 178 8.0
e 154 235 8.0
e 154 257 14.0
e 154 1 32.0
e 154 68 47.0
e 154 236 12.0
e 154 74 34.0
e 154 216 16.0
e 154 87 41.0
e 154 143 39.0
e 154 221 7.0
e 154 191 7.0
e 154 310 39.0
e 154 315 17.0
e 155 203 1.0
e 156 124 1.0
e 157 141 1.0
e 158 41 44.0
e 158 73 12.0
e 158 129 38.0
e 158 269 8.0
e 158 83 27.0
e 158 94 4.0
e 158 268 30.0
e 158 308 37.0
e 158 203 22.0
e 158 165 32.0
e 158 21 34.0
e 158 9 9.0
e 158 234 9.0
e 158 317 4.0
e 158 152 2.0
e 158 258 30.0
e 158 126 34.0
e 158 195 2.0
e 158 215 47.0
e 158 127 36.0
e 158 51 15.0
e 158 232 3.0
e 158 82 20.0
e 158 210 47.0
e 160 45 1.0
e 161 291 1.0
e 161 265 1.0
e 162 260 1.0
e 163 72 3.0
e 164 284 1.0
e 165 175 47.0
e 165 224 13.0
e 165 47 14.0
e 165 306 3.0
e 165 131 30.0
e 165 260 36.0
e 165 155 48.0
e 165 13 17.0
e 165 62 8.0
e 165 38 26.0
e 165 66 21.0
e 165 54 10.0
e 165 109 21.0
e 165 27 30.0
e 165 234 48.0
e 165 248 32.0
e 165 183 49.0
e 165 140 13.0
e 165 209 38.0
e 165 194 44.0
e 165 266 23.0
e 166 98 45.0
e 167 289 1.0
e 168 190 1.0
e 169 83 1.0
e 170 5 1.0
e 171 98 24.0
e 172 102 1.0
e 173 47 2.0
e 173 152 9.0
e 174 210 3.0
e 174 243 48.0
e 174 188 43.0
e 174 293 19.0
e 174 234 48.0
e 174 42 34.0
e 174 231 35.0
e 174 195 23.0
e 174 139 34.0
e 174 29 8.0
e 174 220 19.0
e 174 312 27.0
e 174 235 2.0
e 174 205 2.0
e 174 155 8.0
e 174 178 16.0
e 174 165 38.0
e 174 94 48.0
e 174 143 24.0
e 174 24 11.0
e 174 122 49.0
e 174 236 22.0
e 174 43 17.0
e 175 68 40.0
e 175 226 25.0
e 175 13 1.0
e 175 91 28.0
e 175 313 20.0
e 175 111 36.0
e 175 28 23.0
e 175 293 32.0
e 175 209 8.0
e 175 275 9.0
e 175 232 41.0
e 175 102 11.0
e 175 203 22.0
e 175 24 6.0
e 175 228 2.0
e 175 183 41.0
e 175 109 9.0
e 175 229 38.0
e 175 87 40.0
e 175 18 18.0
e 175 215 5.0
e 175 218 31.0
e 176 118 4.0
e 177 311 2.0
e 178 153 1.0
e 179 187 1.0
e 180 28 2.0
e 181 187 1.0
e 182 283 1.0
e 183 144 19.0
e 183 174 31.0
e 183 138 22.0
e 183 16 13.0
e 183 74 28.0
e 183 163 27.0
e 183 107 22.0
e 183 217 1.0
e 183 315 5.0
e 183 108 14.0
e 183 131 1.0
e 183 25 47.0
e 183 109 47.0
e 183 169 3.0
e 183 151 45.0
e 183 224 24.0
e 183 49 14.0
e 183 114 38.0
e 183 287 21.0
e 183 99 30.0
e 183 226 12.0
e 184 23 43.0
e 184 313 28.0
e 184 284 8.0
e 184 74 22.0
e 184 191 30.0
e 184 244 2.0
e 184 286 28.0
e 184 75 34.0
e 184 278 31.0
e 184 60 13.0
e 184 178 23.0
e 184 44 43.0
e 184 122 18.0
e 184 105 24.0
e 184 140 42.0
e 184 91 13.0
e 184 40 2.0
e 184 186 48.0
e 184 14 20.0
e 184 208 25.0
e 184 202 6.0
e 184 173 23.0
e 185 17 5.0
e 185 161 1.0
e 185 184 32.0
e 185 232 7.0
e 186 39 1.0
e 187 302 1.0
e 188 204 2.0
e 189 201 1.0
e 190 156 1.0
e 191 260 10.0
e 191 158 11.0
e 191 33 45.0
e 191 114 20.0
e 191 214 42.0
e 191 22 19.0
e 191 165 27.0
e 191 54 26.0
e 191 166 8.0
e 191 297 15.0
e 191 82 26.0
e 191 208 39.0
e 191 259 7.0
e 191 207 16.0
e 191 239 26.0
e 191 125 24.0
e 191 28 44.0
e 191 159 14.0
e 191 145 5.0
e 191 211 28.0
e 192 243 1.0
e 193 113 21.0
e 194 79 30.0
e 195 303 1.0
e 196 213 1.0
e 197 270 1.0
e 198 243 1.0
e 199 123 28.0
e 199 34 44.0
e 199 148 38.0
e 199 110 25.0
e 199 195 18.0
e 199 170 32.0
e 199 238 49.0
e 199 231 8.0
e 199 80 34.0
e 199 102 24.0
e 199 250 7.0
e 199 117 47.0
e 199 75 24.0
e 199 236 31.0
e 199 4 34.0
e 199 166 46.0
e 199 297 47.0
e 199 162 47.0
e 199 300 44.0
e 199 158 40.0
e 199 173 2.0
e 199 209 36.0
e 199 129 41.0
e 200 313 1.0
e 201 263 1.0
e 202 294 1.0
e 203 269 2.0
e 204 21 1.0
e 205 293 1.0
e 206 252 1.0
e 207 184 11.0
e 208 157 1.0
e 209 303 1.0
e 210 219 8.0
e 211 42 11.0
e 211 214 20.0
e 211 122 38.0
e 211 102 15.0
e 211 153 18.0
e 211 14 48.0
e 211 13 13.0
e 211 58 44.0
e 211 232 7.0
e 211 173 26.0
e 211 166 35.0
e 211 112 22.0
e 211 129 11.0
e 211 293 47.0
e 211 80 16.0
e 211 206 1.0
e 211 286 4.0
e 211 186 47.0
e 211 179 19.0
e 211 311 20.0
e 211 261 45.0
e 211 48 46.0
e 212 244 1.0
e 213 8 1.0
e 214 312 7.0
e 214 56 14.0
e 214 266 30.0
e 214 149 45.0
e 214 52 21.0
e 214 59 28.0
e 214 153 16.0
e 214 118 31.0
e 214 14 21.0
e 214 300 44.0
e 214 18 28.0
e 214 245 2.0
e 214 216 18.0
e 214 140 48.0
e 214 48 28.0
e 214 54 44.0
e 214 284 34.0
e 214 268 35.0
e 215 213 1.0
e 216 267 1.0
e 217 9 1.0
e 218 234 1.0
e 219 44 2.0
e 219 200 34.0
e 219 299 27.0
e 219 135 30.0
e 219 128 28.0
e 219 244 11.0
e 219 55 15.0
e 219 29 8.0
e 219 175 2.0
e 219 136 31.0
e 219 33 4.0
e 219 116 23.0
e 219 45 35.0
e 219 233 1.0
e 219 194 15.0
e 219 71 28.0
e 219 113 23.0
e 219 241 7.0
e 219 159 34.0
e 219 129 24.0
e 219 205 26.0
e 219 191 30.0
e 220 304 1.0
e 221 266 2.0
e 222 316 1.0
e 223 176 1.0
e 224 131 40.0
e 224 90 45.0
e 224 278 39.0
e 224 33 17.0
e 224 195 13.0
e 224 69 19.0
e 224 78 45.0
e 224 135 24.0
e 224 268 16.0
e 224 186 36.0
e 224 234 21.0
e 224 35 33.0
e 224 269 12.0
e 224 227 24.0
e 224 102 25.0
e 224 304 34.0
e 224 115 1.0
e 224 187 31.0
e 225 273 1.0
e 226 42 7.0
e 227 164 1.0
e 228 305 1.0
e 229 249 1.0
e 230 197 1.0
e 231 123 1.0
e 232 27 23.0
e 233 50 1.0
e 234 245 2.0
e 235 81 1.0
e 236 302 2.0
e 237 152 42.0
e 237 51 1.0
e 238 106 29.0
e 238 299 17.0
e 238 187 24.0
e 238 108 4.0
e 238 62 34.0
e 238 103 8.0
e 238 173 19.0
e 238 88 44.0
e 238 117 6.0
e 238 298 47.0
e 238 30 40.0
e 238 161 4.0
e 238 75 25.0
e 238 147 10.0
e 238 283 27.0
e 238 120 41.0
e 238 91 7.0
e 238 301 34.0
e 238 300 26.0
e 238 247 6.0
e 238 302 23.0
e 238 159 46.0
e 239 153 2.0
e 240 155 1.0
e 241 168 1.0
e 242 268 8.0
e 242 120 2.0
e 242 30 7.0
e 242 306 36.0
e 242 257 44.0
e 242 218 19.0
e 242 220 24.0
e 242 273 46.0
e 242 92 41.0
e 242 270 22.0
e 242 243 46.0
e 242 23 1.0
e 242 81 23.0
e 242 134 37.0
e 242 184 47.0
e 242 148 43.0
e 242 188 22.0
e 242 103 36.0
e 242 84 10.0
e 242 119 26.0
e 242 274 2.0
e 242 149 37.0
e 243 143 2.0
e 244 318 1.0
e 245 101 2.0
e 246 37 1.0
e 247 56 45.0
e 247 316 18.0
e 247 173 9.0
e 247 128 20.0
e 247 165 12.0
e 247 134 24.0
e 247 90 37.0
e 247 242 3.0
e 247 192 2.0
e 247 279 31.0
e 247 47 14.0
e 247 116 7.0
e 247 237 37.0
e 247 41 13.0
e 247 219 10.0
e 247 144 43.0
e 247 202 16.0
e 247 245 20.0
e 247 280 27.0
e 247 226 6.0
e 247 301 33.0
e 248 207 4.0
e 249 282 1.0
e 250 133 1.0
e 251 283 2.0
e 252 272 1.0
e 253 112 2.0
e 254 49 3.0
e 255 248 2.0
e 255 295 1.0
e 256 121 37.0
e 256 298 11.0
e 256 312 10.0
e 256 135 5.0
e 256 88 34.0
e 256 179 3.0
e 257 49 6.0
e 257 1 47.0
e 257 61 41.0
e 257 59 25.0
e 257 119 33.0
e 257 120 33.0
e 257 303 14.0
e 257 132 17.0
e 257 79 17.0
e 257 30 14.0
e 257 45 31.0
e 257 224 16.0
e 257 232 40.0
e 257 81 9.0
e 257 138 13.0
e 257 314 40.0
e 257 292 12.0
e 257 254 12.0
e 257 184 21.0
e 257 143 25.0
e 257 230 7.0
e 258 218 1.0
e 259 289 1.0
e 260 215 1.0
e 261 81 1.0
e 262 180 1.0
e 263 239 1.0
e 264 11 7.0
e 265 61 2.0
e 266 70 2.0
e 267 275 1.0
e 268 179 45.0
e 268 38 49.0
e 268 281 10.0
e 268 47 2.0
e 268 151 23.0
e 268 31 14.0
e 268 110 26.0
e 268 314 31.0
e 268 59 3.0
e 268 62 44.0
e 268 136 45.0
e 268 298 44.0
e 268 77 44.0
e 268 205 18.0
e 268 286 35.0
e 268 180 38.0
e 268 100 3.0
e 268 270 37.0
e 269 19 1.0
e 270 113 31.0
e 271 52 1.0
e 272 145 1.0
e 273 179 2.0
e 274 223 1.0
e 275 68 2.0
e 276 98 12.0
e 276 180 2.0
e 276 182 44.0
e 276 21 19.0
e 276 91 9.0
e 276 76 15.0
e 276 40 38.0
e 276 168 23.0
e 276 181 32.0
e 276 51 49.0
e 276 140 30.0
e 276 272 19.0
e 276 183 23.0
e 276 273 39.0
e 276 152 20.0
e 276 6 31.0
e 276 254 27.0
e 276 274 31.0
e 276 128 48.0
e 276 136 40.0
e 277 260 2.0
e 278 66 1.0
e 279 277 2.0
e 280 246 1.0
e 281 177 1.0
e 282 165 33.0
e 283 247 44.0
e 284 36 2.0
e 285 289 1.0
e 286 170 1.0
e 287 298 1.0
e 288 292 1.0
e 289 34 1.0
e 290 14 34.0
e 290 133 1.0
e 291 140 16.0
e 292 87 2.0
e 293 77 1.0
e 294 58 1.0
e 295 218 1.0
e 296 203 1.0
e 297 156 1.0
e 298 56 1.0
e 299 157 1.0
e 300 231 1.0
e 301 298 1.0
e 302 15 1.0
e 303 1 1.0
e 304 53 1.0
e 305 101 2.0
e 306 46 1.0
e 307 241 2.0
e 308 101 1.0
e 309 169 14.0
e 309 111 5.0
e 309 198 28.0
e 309 10 17.0
e 309 34 24.0
e 309 65 3.0
e 309 123 18.0
e 309 86 37.0
e 309 30 39.0
e 309 0 15.0
e 309 183 10.0
e 309 27 11.0
e 309 277 42.0
e 309 162 28.0
e 309 35 2.0
e 309 128 49.0
e 309 165 30.0
e 309 199 9.0
e 310 25 1.0
e 311 294 2.0
e 312 217 2.0
e 313 208 1.0
e 314 216 38.0
e 314 155 17.0
e 314 281 22.0
e 314 37 42.0
e 314 156 17.0
e 314 224 13.0
e 314 238 48.0
e 314 74 22.0
e 314 201 24.0
e 314 80 37.0
e 314 192 33.0
e 314 124 19.0
e 314 169 33.0
e 314 120 46.0
e 314 76 28.0
e 314 211 40.0
e 314 299 20.0
e 314 160 31.0
e 314 170 32.0
e 315 291 1.0
e 316 94 1.0
e 317 45 2.0
e 318 313 1.0
e 319 189 1.0
